; benchmark generated from python API
(set-info :status unknown)
(declare-fun cell_1_6 () Int)
(declare-fun cell_1_8 () Int)
(declare-fun cell_2_5 () Int)
(declare-fun cell_2_7 () Int)
(declare-fun cell_3_3 () Int)
(declare-fun cell_4_4 () Int)
(declare-fun cell_5_8 () Int)
(declare-fun cell_6_1 () Int)
(declare-fun cell_7_9 () Int)
(declare-fun cell_8_2 () Int)
(declare-fun cell_9_5 () Int)
(declare-fun cell_1_1 () Int)
(declare-fun cell_2_1 () Int)
(declare-fun cell_3_1 () Int)
(declare-fun cell_4_1 () Int)
(declare-fun cell_5_1 () Int)
(declare-fun cell_7_1 () Int)
(declare-fun cell_8_1 () Int)
(declare-fun cell_9_1 () Int)
(declare-fun cell_1_2 () Int)
(declare-fun cell_2_2 () Int)
(declare-fun cell_3_2 () Int)
(declare-fun cell_4_2 () Int)
(declare-fun cell_5_2 () Int)
(declare-fun cell_6_2 () Int)
(declare-fun cell_7_2 () Int)
(declare-fun cell_9_2 () Int)
(declare-fun cell_1_3 () Int)
(declare-fun cell_2_3 () Int)
(declare-fun cell_4_3 () Int)
(declare-fun cell_5_3 () Int)
(declare-fun cell_6_3 () Int)
(declare-fun cell_7_3 () Int)
(declare-fun cell_8_3 () Int)
(declare-fun cell_9_3 () Int)
(declare-fun cell_1_4 () Int)
(declare-fun cell_2_4 () Int)
(declare-fun cell_3_4 () Int)
(declare-fun cell_5_4 () Int)
(declare-fun cell_6_4 () Int)
(declare-fun cell_7_4 () Int)
(declare-fun cell_8_4 () Int)
(declare-fun cell_9_4 () Int)
(declare-fun cell_1_5 () Int)
(declare-fun cell_3_5 () Int)
(declare-fun cell_4_5 () Int)
(declare-fun cell_5_5 () Int)
(declare-fun cell_6_5 () Int)
(declare-fun cell_7_5 () Int)
(declare-fun cell_8_5 () Int)
(declare-fun cell_2_6 () Int)
(declare-fun cell_3_6 () Int)
(declare-fun cell_4_6 () Int)
(declare-fun cell_5_6 () Int)
(declare-fun cell_6_6 () Int)
(declare-fun cell_7_6 () Int)
(declare-fun cell_8_6 () Int)
(declare-fun cell_9_6 () Int)
(declare-fun cell_1_7 () Int)
(declare-fun cell_3_7 () Int)
(declare-fun cell_4_7 () Int)
(declare-fun cell_5_7 () Int)
(declare-fun cell_6_7 () Int)
(declare-fun cell_7_7 () Int)
(declare-fun cell_8_7 () Int)
(declare-fun cell_9_7 () Int)
(declare-fun cell_2_8 () Int)
(declare-fun cell_3_8 () Int)
(declare-fun cell_4_8 () Int)
(declare-fun cell_6_8 () Int)
(declare-fun cell_7_8 () Int)
(declare-fun cell_8_8 () Int)
(declare-fun cell_9_8 () Int)
(declare-fun cell_1_9 () Int)
(declare-fun cell_2_9 () Int)
(declare-fun cell_3_9 () Int)
(declare-fun cell_4_9 () Int)
(declare-fun cell_5_9 () Int)
(declare-fun cell_6_9 () Int)
(declare-fun cell_8_9 () Int)
(declare-fun cell_9_9 () Int)
(assert
 (= cell_1_6 1))
(assert
 (= cell_1_8 2))
(assert
 (= cell_2_5 2))
(assert
 (= cell_2_7 1))
(assert
 (= cell_3_3 1))
(assert
 (= cell_4_4 1))
(assert
 (= cell_5_8 1))
(assert
 (= cell_6_1 1))
(assert
 (= cell_7_9 1))
(assert
 (= cell_8_2 1))
(assert
 (= cell_9_5 1))
(assert
 (let (($x2547 (= cell_1_1 9)))
 (let (($x4248 (= cell_1_1 8)))
 (let (($x1448 (= cell_1_1 7)))
 (let (($x6424 (= cell_1_1 6)))
 (let (($x3900 (= cell_1_1 5)))
 (let (($x3926 (= cell_1_1 4)))
 (let (($x3928 (= cell_1_1 3)))
 (let (($x3144 (= cell_1_1 2)))
 (let (($x4860 (= cell_1_1 1)))
 (or $x4860 $x3144 $x3928 $x3926 $x3900 $x6424 $x1448 $x4248 $x2547)))))))))))
(assert
 (let (($x574 (= cell_2_1 9)))
 (let (($x511 (= cell_2_1 8)))
 (let (($x4669 (= cell_2_1 7)))
 (let (($x4411 (= cell_2_1 6)))
 (let (($x5888 (= cell_2_1 5)))
 (let (($x2250 (= cell_2_1 4)))
 (let (($x4936 (= cell_2_1 3)))
 (let (($x1923 (= cell_2_1 2)))
 (let (($x5183 (= cell_2_1 1)))
 (or $x5183 $x1923 $x4936 $x2250 $x5888 $x4411 $x4669 $x511 $x574)))))))))))
(assert
 (let (($x890 (= cell_3_1 9)))
 (let (($x1507 (= cell_3_1 8)))
 (let (($x1663 (= cell_3_1 7)))
 (let (($x4752 (= cell_3_1 6)))
 (let (($x859 (= cell_3_1 5)))
 (let (($x4414 (= cell_3_1 4)))
 (let (($x2182 (= cell_3_1 3)))
 (let (($x3780 (= cell_3_1 2)))
 (let (($x6531 (= cell_3_1 1)))
 (or $x6531 $x3780 $x2182 $x4414 $x859 $x4752 $x1663 $x1507 $x890)))))))))))
(assert
 (let (($x2011 (= cell_4_1 9)))
 (let (($x1257 (= cell_4_1 8)))
 (let (($x3348 (= cell_4_1 7)))
 (let (($x3891 (= cell_4_1 6)))
 (let (($x4997 (= cell_4_1 5)))
 (let (($x1023 (= cell_4_1 4)))
 (let (($x4425 (= cell_4_1 3)))
 (let (($x3687 (= cell_4_1 2)))
 (let (($x5853 (= cell_4_1 1)))
 (or $x5853 $x3687 $x4425 $x1023 $x4997 $x3891 $x3348 $x1257 $x2011)))))))))))
(assert
 (let (($x5353 (= cell_5_1 9)))
 (let (($x6795 (= cell_5_1 8)))
 (let (($x2679 (= cell_5_1 7)))
 (let (($x4905 (= cell_5_1 6)))
 (let (($x4316 (= cell_5_1 5)))
 (let (($x3958 (= cell_5_1 4)))
 (let (($x3893 (= cell_5_1 3)))
 (let (($x1600 (= cell_5_1 2)))
 (let (($x1900 (= cell_5_1 1)))
 (or $x1900 $x1600 $x3893 $x3958 $x4316 $x4905 $x2679 $x6795 $x5353)))))))))))
(assert
 (let (($x2070 (= cell_6_1 1)))
 (or $x2070 (= cell_6_1 2) (= cell_6_1 3) (= cell_6_1 4) (= cell_6_1 5) (= cell_6_1 6) (= cell_6_1 7) (= cell_6_1 8) (= cell_6_1 9))))
(assert
 (let (($x632 (= cell_7_1 9)))
 (let (($x4832 (= cell_7_1 8)))
 (let (($x5872 (= cell_7_1 7)))
 (let (($x1452 (= cell_7_1 6)))
 (let (($x1224 (= cell_7_1 5)))
 (let (($x1815 (= cell_7_1 4)))
 (let (($x608 (= cell_7_1 3)))
 (let (($x2524 (= cell_7_1 2)))
 (let (($x442 (= cell_7_1 1)))
 (or $x442 $x2524 $x608 $x1815 $x1224 $x1452 $x5872 $x4832 $x632)))))))))))
(assert
 (let (($x1771 (= cell_8_1 9)))
 (let (($x1416 (= cell_8_1 8)))
 (let (($x4993 (= cell_8_1 7)))
 (let (($x3982 (= cell_8_1 6)))
 (let (($x3791 (= cell_8_1 5)))
 (let (($x536 (= cell_8_1 4)))
 (let (($x5994 (= cell_8_1 3)))
 (let (($x3506 (= cell_8_1 2)))
 (let (($x3829 (= cell_8_1 1)))
 (or $x3829 $x3506 $x5994 $x536 $x3791 $x3982 $x4993 $x1416 $x1771)))))))))))
(assert
 (let (($x1942 (= cell_9_1 9)))
 (let (($x2883 (= cell_9_1 8)))
 (let (($x474 (= cell_9_1 7)))
 (let (($x3994 (= cell_9_1 6)))
 (let (($x5845 (= cell_9_1 5)))
 (let (($x7334 (= cell_9_1 4)))
 (let (($x4776 (= cell_9_1 3)))
 (let (($x5640 (= cell_9_1 2)))
 (let (($x4126 (= cell_9_1 1)))
 (or $x4126 $x5640 $x4776 $x7334 $x5845 $x3994 $x474 $x2883 $x1942)))))))))))
(assert
 (let (($x2821 (= cell_1_2 9)))
 (let (($x3479 (= cell_1_2 8)))
 (let (($x1040 (= cell_1_2 7)))
 (let (($x713 (= cell_1_2 6)))
 (let (($x862 (= cell_1_2 5)))
 (let (($x5305 (= cell_1_2 4)))
 (let (($x2333 (= cell_1_2 3)))
 (let (($x2750 (= cell_1_2 2)))
 (let (($x6448 (= cell_1_2 1)))
 (or $x6448 $x2750 $x2333 $x5305 $x862 $x713 $x1040 $x3479 $x2821)))))))))))
(assert
 (let (($x1005 (= cell_2_2 9)))
 (let (($x3477 (= cell_2_2 8)))
 (let (($x2956 (= cell_2_2 7)))
 (let (($x4007 (= cell_2_2 6)))
 (let (($x4109 (= cell_2_2 5)))
 (let (($x3996 (= cell_2_2 4)))
 (let (($x3289 (= cell_2_2 3)))
 (let (($x547 (= cell_2_2 2)))
 (let (($x3193 (= cell_2_2 1)))
 (or $x3193 $x547 $x3289 $x3996 $x4109 $x4007 $x2956 $x3477 $x1005)))))))))))
(assert
 (let (($x1423 (= cell_3_2 9)))
 (let (($x6028 (= cell_3_2 8)))
 (let (($x5279 (= cell_3_2 7)))
 (let (($x4031 (= cell_3_2 6)))
 (let (($x5791 (= cell_3_2 5)))
 (let (($x973 (= cell_3_2 4)))
 (let (($x228 (= cell_3_2 3)))
 (let (($x1043 (= cell_3_2 2)))
 (let (($x2966 (= cell_3_2 1)))
 (or $x2966 $x1043 $x228 $x973 $x5791 $x4031 $x5279 $x6028 $x1423)))))))))))
(assert
 (let (($x2086 (= cell_4_2 9)))
 (let (($x2413 (= cell_4_2 8)))
 (let (($x3744 (= cell_4_2 7)))
 (let (($x3820 (= cell_4_2 6)))
 (let (($x376 (= cell_4_2 5)))
 (let (($x3711 (= cell_4_2 4)))
 (let (($x4122 (= cell_4_2 3)))
 (let (($x3478 (= cell_4_2 2)))
 (let (($x5364 (= cell_4_2 1)))
 (or $x5364 $x3478 $x4122 $x3711 $x376 $x3820 $x3744 $x2413 $x2086)))))))))))
(assert
 (let (($x113 (= cell_5_2 9)))
 (let (($x4457 (= cell_5_2 8)))
 (let (($x5976 (= cell_5_2 7)))
 (let (($x2055 (= cell_5_2 6)))
 (let (($x726 (= cell_5_2 5)))
 (let (($x4434 (= cell_5_2 4)))
 (let (($x1139 (= cell_5_2 3)))
 (let (($x2944 (= cell_5_2 2)))
 (let (($x532 (= cell_5_2 1)))
 (or $x532 $x2944 $x1139 $x4434 $x726 $x2055 $x5976 $x4457 $x113)))))))))))
(assert
 (let (($x6561 (= cell_6_2 9)))
 (let (($x3837 (= cell_6_2 8)))
 (let (($x777 (= cell_6_2 7)))
 (let (($x853 (= cell_6_2 6)))
 (let (($x196 (= cell_6_2 5)))
 (let (($x3762 (= cell_6_2 4)))
 (let (($x2194 (= cell_6_2 3)))
 (let (($x6291 (= cell_6_2 2)))
 (let (($x2506 (= cell_6_2 1)))
 (or $x2506 $x6291 $x2194 $x3762 $x196 $x853 $x777 $x3837 $x6561)))))))))))
(assert
 (let (($x1946 (= cell_7_2 9)))
 (let (($x4516 (= cell_7_2 8)))
 (let (($x932 (= cell_7_2 7)))
 (let (($x1602 (= cell_7_2 6)))
 (let (($x4584 (= cell_7_2 5)))
 (let (($x4989 (= cell_7_2 4)))
 (let (($x2504 (= cell_7_2 3)))
 (let (($x5397 (= cell_7_2 2)))
 (let (($x291 (= cell_7_2 1)))
 (or $x291 $x5397 $x2504 $x4989 $x4584 $x1602 $x932 $x4516 $x1946)))))))))))
(assert
 (let (($x945 (= cell_8_2 1)))
 (or $x945 (= cell_8_2 2) (= cell_8_2 3) (= cell_8_2 4) (= cell_8_2 5) (= cell_8_2 6) (= cell_8_2 7) (= cell_8_2 8) (= cell_8_2 9))))
(assert
 (let (($x4066 (= cell_9_2 9)))
 (let (($x5398 (= cell_9_2 8)))
 (let (($x4401 (= cell_9_2 7)))
 (let (($x5682 (= cell_9_2 6)))
 (let (($x4405 (= cell_9_2 5)))
 (let (($x225 (= cell_9_2 4)))
 (let (($x1831 (= cell_9_2 3)))
 (let (($x3167 (= cell_9_2 2)))
 (let (($x1910 (= cell_9_2 1)))
 (or $x1910 $x3167 $x1831 $x225 $x4405 $x5682 $x4401 $x5398 $x4066)))))))))))
(assert
 (let (($x1963 (= cell_1_3 9)))
 (let (($x3662 (= cell_1_3 8)))
 (let (($x4285 (= cell_1_3 7)))
 (let (($x238 (= cell_1_3 6)))
 (let (($x3569 (= cell_1_3 5)))
 (let (($x5348 (= cell_1_3 4)))
 (let (($x4102 (= cell_1_3 3)))
 (let (($x324 (= cell_1_3 2)))
 (let (($x5067 (= cell_1_3 1)))
 (or $x5067 $x324 $x4102 $x5348 $x3569 $x238 $x4285 $x3662 $x1963)))))))))))
(assert
 (let (($x4671 (= cell_2_3 9)))
 (let (($x4338 (= cell_2_3 8)))
 (let (($x4419 (= cell_2_3 7)))
 (let (($x3443 (= cell_2_3 6)))
 (let (($x2917 (= cell_2_3 5)))
 (let (($x4225 (= cell_2_3 4)))
 (let (($x1611 (= cell_2_3 3)))
 (let (($x3789 (= cell_2_3 2)))
 (let (($x3685 (= cell_2_3 1)))
 (or $x3685 $x3789 $x1611 $x4225 $x2917 $x3443 $x4419 $x4338 $x4671)))))))))))
(assert
 (let (($x872 (= cell_3_3 1)))
 (or $x872 (= cell_3_3 2) (= cell_3_3 3) (= cell_3_3 4) (= cell_3_3 5) (= cell_3_3 6) (= cell_3_3 7) (= cell_3_3 8) (= cell_3_3 9))))
(assert
 (let (($x4021 (= cell_4_3 9)))
 (let (($x1563 (= cell_4_3 8)))
 (let (($x3848 (= cell_4_3 7)))
 (let (($x4307 (= cell_4_3 6)))
 (let (($x5811 (= cell_4_3 5)))
 (let (($x3898 (= cell_4_3 4)))
 (let (($x5561 (= cell_4_3 3)))
 (let (($x1345 (= cell_4_3 2)))
 (let (($x5046 (= cell_4_3 1)))
 (or $x5046 $x1345 $x5561 $x3898 $x5811 $x4307 $x3848 $x1563 $x4021)))))))))))
(assert
 (let (($x1798 (= cell_5_3 9)))
 (let (($x6340 (= cell_5_3 8)))
 (let (($x3016 (= cell_5_3 7)))
 (let (($x3109 (= cell_5_3 6)))
 (let (($x3759 (= cell_5_3 5)))
 (let (($x5227 (= cell_5_3 4)))
 (let (($x4037 (= cell_5_3 3)))
 (let (($x1169 (= cell_5_3 2)))
 (let (($x2646 (= cell_5_3 1)))
 (or $x2646 $x1169 $x4037 $x5227 $x3759 $x3109 $x3016 $x6340 $x1798)))))))))))
(assert
 (let (($x2468 (= cell_6_3 2)))
 (let (($x4851 (= cell_6_3 1)))
 (or $x4851 $x2468 (= cell_6_3 3) (= cell_6_3 4) (= cell_6_3 5) (= cell_6_3 6) (= cell_6_3 7) (= cell_6_3 8) (= cell_6_3 9)))))
(assert
 (let (($x1415 (= cell_7_3 9)))
 (let (($x5860 (= cell_7_3 8)))
 (let (($x4048 (= cell_7_3 7)))
 (let (($x167 (= cell_7_3 6)))
 (let (($x889 (= cell_7_3 5)))
 (let (($x4223 (= cell_7_3 4)))
 (let (($x4554 (= cell_7_3 3)))
 (let (($x5374 (= cell_7_3 2)))
 (let (($x769 (= cell_7_3 1)))
 (or $x769 $x5374 $x4554 $x4223 $x889 $x167 $x4048 $x5860 $x1415)))))))))))
(assert
 (let (($x3675 (= cell_8_3 1)))
 (or $x3675 (= cell_8_3 2) (= cell_8_3 3) (= cell_8_3 4) (= cell_8_3 5) (= cell_8_3 6) (= cell_8_3 7) (= cell_8_3 8) (= cell_8_3 9))))
(assert
 (let (($x5728 (= cell_9_3 9)))
 (let (($x1326 (= cell_9_3 8)))
 (let (($x5256 (= cell_9_3 7)))
 (let (($x4724 (= cell_9_3 6)))
 (let (($x5013 (= cell_9_3 5)))
 (let (($x4409 (= cell_9_3 4)))
 (let (($x5071 (= cell_9_3 3)))
 (let (($x977 (= cell_9_3 2)))
 (let (($x101 (= cell_9_3 1)))
 (or $x101 $x977 $x5071 $x4409 $x5013 $x4724 $x5256 $x1326 $x5728)))))))))))
(assert
 (let (($x9892 (= cell_1_4 9)))
 (let (($x4449 (= cell_1_4 8)))
 (let (($x111 (= cell_1_4 7)))
 (let (($x4155 (= cell_1_4 6)))
 (let (($x6384 (= cell_1_4 5)))
 (let (($x5213 (= cell_1_4 4)))
 (let (($x3839 (= cell_1_4 3)))
 (let (($x5755 (= cell_1_4 2)))
 (let (($x4736 (= cell_1_4 1)))
 (or $x4736 $x5755 $x3839 $x5213 $x6384 $x4155 $x111 $x4449 $x9892)))))))))))
(assert
 (let (($x6060 (= cell_2_4 9)))
 (let (($x9085 (= cell_2_4 8)))
 (let (($x3559 (= cell_2_4 7)))
 (let (($x4514 (= cell_2_4 6)))
 (let (($x987 (= cell_2_4 5)))
 (let (($x1141 (= cell_2_4 4)))
 (let (($x4299 (= cell_2_4 3)))
 (let (($x2525 (= cell_2_4 2)))
 (let (($x3456 (= cell_2_4 1)))
 (or $x3456 $x2525 $x4299 $x1141 $x987 $x4514 $x3559 $x9085 $x6060)))))))))))
(assert
 (let (($x1193 (= cell_3_4 9)))
 (let (($x5180 (= cell_3_4 8)))
 (let (($x3911 (= cell_3_4 7)))
 (let (($x1090 (= cell_3_4 6)))
 (let (($x3922 (= cell_3_4 5)))
 (let (($x5997 (= cell_3_4 4)))
 (let (($x4519 (= cell_3_4 3)))
 (let (($x436 (= cell_3_4 2)))
 (let (($x3880 (= cell_3_4 1)))
 (or $x3880 $x436 $x4519 $x5997 $x3922 $x1090 $x3911 $x5180 $x1193)))))))))))
(assert
 (let (($x1753 (= cell_4_4 1)))
 (or $x1753 (= cell_4_4 2) (= cell_4_4 3) (= cell_4_4 4) (= cell_4_4 5) (= cell_4_4 6) (= cell_4_4 7) (= cell_4_4 8) (= cell_4_4 9))))
(assert
 (let (($x373 (= cell_5_4 9)))
 (let (($x3655 (= cell_5_4 8)))
 (let (($x4025 (= cell_5_4 7)))
 (let (($x204 (= cell_5_4 6)))
 (let (($x4545 (= cell_5_4 5)))
 (let (($x5417 (= cell_5_4 4)))
 (let (($x2216 (= cell_5_4 3)))
 (let (($x4214 (= cell_5_4 2)))
 (let (($x1046 (= cell_5_4 1)))
 (or $x1046 $x4214 $x2216 $x5417 $x4545 $x204 $x4025 $x3655 $x373)))))))))))
(assert
 (let (($x558 (= cell_6_4 1)))
 (or $x558 (= cell_6_4 2) (= cell_6_4 3) (= cell_6_4 4) (= cell_6_4 5) (= cell_6_4 6) (= cell_6_4 7) (= cell_6_4 8) (= cell_6_4 9))))
(assert
 (let (($x3944 (= cell_7_4 9)))
 (let (($x2640 (= cell_7_4 8)))
 (let (($x2553 (= cell_7_4 7)))
 (let (($x2641 (= cell_7_4 6)))
 (let (($x1637 (= cell_7_4 5)))
 (let (($x409 (= cell_7_4 4)))
 (let (($x5066 (= cell_7_4 3)))
 (let (($x3546 (= cell_7_4 2)))
 (let (($x3790 (= cell_7_4 1)))
 (or $x3790 $x3546 $x5066 $x409 $x1637 $x2641 $x2553 $x2640 $x3944)))))))))))
(assert
 (let (($x3983 (= cell_8_4 9)))
 (let (($x2213 (= cell_8_4 8)))
 (let (($x3473 (= cell_8_4 7)))
 (let (($x4541 (= cell_8_4 6)))
 (let (($x4059 (= cell_8_4 5)))
 (let (($x958 (= cell_8_4 4)))
 (let (($x5614 (= cell_8_4 3)))
 (let (($x4057 (= cell_8_4 2)))
 (let (($x1131 (= cell_8_4 1)))
 (or $x1131 $x4057 $x5614 $x958 $x4059 $x4541 $x3473 $x2213 $x3983)))))))))))
(assert
 (let (($x5371 (= cell_9_4 9)))
 (let (($x5950 (= cell_9_4 8)))
 (let (($x488 (= cell_9_4 7)))
 (let (($x1024 (= cell_9_4 6)))
 (let (($x6300 (= cell_9_4 5)))
 (let (($x4899 (= cell_9_4 4)))
 (let (($x4121 (= cell_9_4 3)))
 (let (($x2560 (= cell_9_4 2)))
 (let (($x2861 (= cell_9_4 1)))
 (or $x2861 $x2560 $x4121 $x4899 $x6300 $x1024 $x488 $x5950 $x5371)))))))))))
(assert
 (let (($x3930 (= cell_1_5 9)))
 (let (($x4358 (= cell_1_5 8)))
 (let (($x1936 (= cell_1_5 7)))
 (let (($x3057 (= cell_1_5 6)))
 (let (($x5490 (= cell_1_5 5)))
 (let (($x1411 (= cell_1_5 4)))
 (let (($x4265 (= cell_1_5 3)))
 (let (($x5493 (= cell_1_5 2)))
 (let (($x5928 (= cell_1_5 1)))
 (or $x5928 $x5493 $x4265 $x1411 $x5490 $x3057 $x1936 $x4358 $x3930)))))))))))
(assert
 (let (($x3952 (= cell_2_5 2)))
 (or (= cell_2_5 1) $x3952 (= cell_2_5 3) (= cell_2_5 4) (= cell_2_5 5) (= cell_2_5 6) (= cell_2_5 7) (= cell_2_5 8) (= cell_2_5 9))))
(assert
 (let (($x881 (= cell_3_5 9)))
 (let (($x34 (= cell_3_5 8)))
 (let (($x6165 (= cell_3_5 7)))
 (let (($x5774 (= cell_3_5 6)))
 (let (($x4207 (= cell_3_5 5)))
 (let (($x954 (= cell_3_5 4)))
 (let (($x593 (= cell_3_5 3)))
 (let (($x2793 (= cell_3_5 2)))
 (let (($x1640 (= cell_3_5 1)))
 (or $x1640 $x2793 $x593 $x954 $x4207 $x5774 $x6165 $x34 $x881)))))))))))
(assert
 (let (($x3997 (= cell_4_5 9)))
 (let (($x4742 (= cell_4_5 8)))
 (let (($x5082 (= cell_4_5 7)))
 (let (($x2476 (= cell_4_5 6)))
 (let (($x5178 (= cell_4_5 5)))
 (let (($x3169 (= cell_4_5 4)))
 (let (($x5697 (= cell_4_5 3)))
 (let (($x5025 (= cell_4_5 2)))
 (let (($x524 (= cell_4_5 1)))
 (or $x524 $x5025 $x5697 $x3169 $x5178 $x2476 $x5082 $x4742 $x3997)))))))))))
(assert
 (let (($x105 (= cell_5_5 9)))
 (let (($x3580 (= cell_5_5 8)))
 (let (($x4891 (= cell_5_5 7)))
 (let (($x1387 (= cell_5_5 6)))
 (let (($x3812 (= cell_5_5 5)))
 (let (($x3044 (= cell_5_5 4)))
 (let (($x2522 (= cell_5_5 3)))
 (let (($x5187 (= cell_5_5 2)))
 (let (($x3577 (= cell_5_5 1)))
 (or $x3577 $x5187 $x2522 $x3044 $x3812 $x1387 $x4891 $x3580 $x105)))))))))))
(assert
 (let (($x5196 (= cell_6_5 9)))
 (let (($x2987 (= cell_6_5 8)))
 (let (($x3796 (= cell_6_5 7)))
 (let (($x1675 (= cell_6_5 6)))
 (let (($x3364 (= cell_6_5 5)))
 (let (($x5987 (= cell_6_5 4)))
 (let (($x4045 (= cell_6_5 3)))
 (let (($x1688 (= cell_6_5 2)))
 (let (($x3955 (= cell_6_5 1)))
 (or $x3955 $x1688 $x4045 $x5987 $x3364 $x1675 $x3796 $x2987 $x5196)))))))))))
(assert
 (let (($x4388 (= cell_7_5 9)))
 (let (($x2989 (= cell_7_5 8)))
 (let (($x6426 (= cell_7_5 7)))
 (let (($x2878 (= cell_7_5 6)))
 (let (($x5650 (= cell_7_5 5)))
 (let (($x743 (= cell_7_5 4)))
 (let (($x106 (= cell_7_5 3)))
 (let (($x6895 (= cell_7_5 2)))
 (let (($x4075 (= cell_7_5 1)))
 (or $x4075 $x6895 $x106 $x743 $x5650 $x2878 $x6426 $x2989 $x4388)))))))))))
(assert
 (let (($x1338 (= cell_8_5 9)))
 (let (($x5123 (= cell_8_5 8)))
 (let (($x6003 (= cell_8_5 7)))
 (let (($x103 (= cell_8_5 6)))
 (let (($x4022 (= cell_8_5 5)))
 (let (($x4336 (= cell_8_5 4)))
 (let (($x4882 (= cell_8_5 3)))
 (let (($x2853 (= cell_8_5 2)))
 (let (($x2396 (= cell_8_5 1)))
 (or $x2396 $x2853 $x4882 $x4336 $x4022 $x103 $x6003 $x5123 $x1338)))))))))))
(assert
 (let (($x3030 (= cell_9_5 1)))
 (or $x3030 (= cell_9_5 2) (= cell_9_5 3) (= cell_9_5 4) (= cell_9_5 5) (= cell_9_5 6) (= cell_9_5 7) (= cell_9_5 8) (= cell_9_5 9))))
(assert
 (let (($x32 (= cell_1_6 1)))
 (or $x32 (= cell_1_6 2) (= cell_1_6 3) (= cell_1_6 4) (= cell_1_6 5) (= cell_1_6 6) (= cell_1_6 7) (= cell_1_6 8) (= cell_1_6 9))))
(assert
 (let (($x5384 (= cell_2_6 9)))
 (let (($x8329 (= cell_2_6 8)))
 (let (($x1378 (= cell_2_6 7)))
 (let (($x3346 (= cell_2_6 6)))
 (let (($x186 (= cell_2_6 5)))
 (let (($x4638 (= cell_2_6 4)))
 (let (($x5448 (= cell_2_6 3)))
 (let (($x4376 (= cell_2_6 2)))
 (let (($x5185 (= cell_2_6 1)))
 (or $x5185 $x4376 $x5448 $x4638 $x186 $x3346 $x1378 $x8329 $x5384)))))))))))
(assert
 (let (($x2450 (= cell_3_6 2)))
 (let (($x1086 (= cell_3_6 1)))
 (or $x1086 $x2450 (= cell_3_6 3) (= cell_3_6 4) (= cell_3_6 5) (= cell_3_6 6) (= cell_3_6 7) (= cell_3_6 8) (= cell_3_6 9)))))
(assert
 (let (($x1930 (= cell_4_6 1)))
 (or $x1930 (= cell_4_6 2) (= cell_4_6 3) (= cell_4_6 4) (= cell_4_6 5) (= cell_4_6 6) (= cell_4_6 7) (= cell_4_6 8) (= cell_4_6 9))))
(assert
 (let (($x3876 (= cell_5_6 9)))
 (let (($x5415 (= cell_5_6 8)))
 (let (($x2819 (= cell_5_6 7)))
 (let (($x879 (= cell_5_6 6)))
 (let (($x6067 (= cell_5_6 5)))
 (let (($x4847 (= cell_5_6 4)))
 (let (($x2288 (= cell_5_6 3)))
 (let (($x417 (= cell_5_6 2)))
 (let (($x4219 (= cell_5_6 1)))
 (or $x4219 $x417 $x2288 $x4847 $x6067 $x879 $x2819 $x5415 $x3876)))))))))))
(assert
 (let (($x5293 (= cell_6_6 1)))
 (or $x5293 (= cell_6_6 2) (= cell_6_6 3) (= cell_6_6 4) (= cell_6_6 5) (= cell_6_6 6) (= cell_6_6 7) (= cell_6_6 8) (= cell_6_6 9))))
(assert
 (let (($x1462 (= cell_7_6 9)))
 (let (($x5486 (= cell_7_6 8)))
 (let (($x1402 (= cell_7_6 7)))
 (let (($x5355 (= cell_7_6 6)))
 (let (($x3319 (= cell_7_6 5)))
 (let (($x4625 (= cell_7_6 4)))
 (let (($x330 (= cell_7_6 3)))
 (let (($x4490 (= cell_7_6 2)))
 (let (($x2877 (= cell_7_6 1)))
 (or $x2877 $x4490 $x330 $x4625 $x3319 $x5355 $x1402 $x5486 $x1462)))))))))))
(assert
 (let (($x171 (= cell_8_6 9)))
 (let (($x715 (= cell_8_6 8)))
 (let (($x4718 (= cell_8_6 7)))
 (let (($x5607 (= cell_8_6 6)))
 (let (($x1976 (= cell_8_6 5)))
 (let (($x52 (= cell_8_6 4)))
 (let (($x6540 (= cell_8_6 3)))
 (let (($x4332 (= cell_8_6 2)))
 (let (($x1869 (= cell_8_6 1)))
 (or $x1869 $x4332 $x6540 $x52 $x1976 $x5607 $x4718 $x715 $x171)))))))))))
(assert
 (let (($x1803 (= cell_9_6 1)))
 (or $x1803 (= cell_9_6 2) (= cell_9_6 3) (= cell_9_6 4) (= cell_9_6 5) (= cell_9_6 6) (= cell_9_6 7) (= cell_9_6 8) (= cell_9_6 9))))
(assert
 (let (($x1391 (= cell_1_7 9)))
 (let (($x4008 (= cell_1_7 8)))
 (let (($x827 (= cell_1_7 7)))
 (let (($x2312 (= cell_1_7 6)))
 (let (($x3505 (= cell_1_7 5)))
 (let (($x6534 (= cell_1_7 4)))
 (let (($x205 (= cell_1_7 3)))
 (let (($x6566 (= cell_1_7 2)))
 (let (($x3758 (= cell_1_7 1)))
 (or $x3758 $x6566 $x205 $x6534 $x3505 $x2312 $x827 $x4008 $x1391)))))))))))
(assert
 (let (($x4268 (= cell_2_7 1)))
 (or $x4268 (= cell_2_7 2) (= cell_2_7 3) (= cell_2_7 4) (= cell_2_7 5) (= cell_2_7 6) (= cell_2_7 7) (= cell_2_7 8) (= cell_2_7 9))))
(assert
 (let (($x1786 (= cell_3_7 2)))
 (let (($x4052 (= cell_3_7 1)))
 (or $x4052 $x1786 (= cell_3_7 3) (= cell_3_7 4) (= cell_3_7 5) (= cell_3_7 6) (= cell_3_7 7) (= cell_3_7 8) (= cell_3_7 9)))))
(assert
 (let (($x4960 (= cell_4_7 9)))
 (let (($x3623 (= cell_4_7 8)))
 (let (($x947 (= cell_4_7 7)))
 (let (($x3843 (= cell_4_7 6)))
 (let (($x5540 (= cell_4_7 5)))
 (let (($x143 (= cell_4_7 4)))
 (let (($x263 (= cell_4_7 3)))
 (let (($x1180 (= cell_4_7 2)))
 (let (($x3826 (= cell_4_7 1)))
 (or $x3826 $x1180 $x263 $x143 $x5540 $x3843 $x947 $x3623 $x4960)))))))))))
(assert
 (let (($x2796 (= cell_5_7 9)))
 (let (($x342 (= cell_5_7 8)))
 (let (($x1494 (= cell_5_7 7)))
 (let (($x5564 (= cell_5_7 6)))
 (let (($x591 (= cell_5_7 5)))
 (let (($x4661 (= cell_5_7 4)))
 (let (($x4407 (= cell_5_7 3)))
 (let (($x991 (= cell_5_7 2)))
 (let (($x5163 (= cell_5_7 1)))
 (or $x5163 $x991 $x4407 $x4661 $x591 $x5564 $x1494 $x342 $x2796)))))))))))
(assert
 (let (($x37 (= cell_6_7 1)))
 (or $x37 (= cell_6_7 2) (= cell_6_7 3) (= cell_6_7 4) (= cell_6_7 5) (= cell_6_7 6) (= cell_6_7 7) (= cell_6_7 8) (= cell_6_7 9))))
(assert
 (let (($x6123 (= cell_7_7 9)))
 (let (($x1842 (= cell_7_7 8)))
 (let (($x4778 (= cell_7_7 7)))
 (let (($x8389 (= cell_7_7 6)))
 (let (($x3470 (= cell_7_7 5)))
 (let (($x6338 (= cell_7_7 4)))
 (let (($x480 (= cell_7_7 3)))
 (let (($x1202 (= cell_7_7 2)))
 (let (($x4210 (= cell_7_7 1)))
 (or $x4210 $x1202 $x480 $x6338 $x3470 $x8389 $x4778 $x1842 $x6123)))))))))))
(assert
 (let (($x1374 (= cell_8_7 1)))
 (or $x1374 (= cell_8_7 2) (= cell_8_7 3) (= cell_8_7 4) (= cell_8_7 5) (= cell_8_7 6) (= cell_8_7 7) (= cell_8_7 8) (= cell_8_7 9))))
(assert
 (let (($x5991 (= cell_9_7 1)))
 (or $x5991 (= cell_9_7 2) (= cell_9_7 3) (= cell_9_7 4) (= cell_9_7 5) (= cell_9_7 6) (= cell_9_7 7) (= cell_9_7 8) (= cell_9_7 9))))
(assert
 (let (($x2285 (= cell_1_8 2)))
 (or (= cell_1_8 1) $x2285 (= cell_1_8 3) (= cell_1_8 4) (= cell_1_8 5) (= cell_1_8 6) (= cell_1_8 7) (= cell_1_8 8) (= cell_1_8 9))))
(assert
 (let (($x3418 (= cell_2_8 9)))
 (let (($x2515 (= cell_2_8 8)))
 (let (($x5816 (= cell_2_8 7)))
 (let (($x1428 (= cell_2_8 6)))
 (let (($x5796 (= cell_2_8 5)))
 (let (($x5267 (= cell_2_8 4)))
 (let (($x1440 (= cell_2_8 3)))
 (let (($x3020 (= cell_2_8 2)))
 (let (($x1119 (= cell_2_8 1)))
 (or $x1119 $x3020 $x1440 $x5267 $x5796 $x1428 $x5816 $x2515 $x3418)))))))))))
(assert
 (let (($x133 (= cell_3_8 9)))
 (let (($x5838 (= cell_3_8 8)))
 (let (($x3050 (= cell_3_8 7)))
 (let (($x4831 (= cell_3_8 6)))
 (let (($x1152 (= cell_3_8 5)))
 (let (($x4577 (= cell_3_8 4)))
 (let (($x4077 (= cell_3_8 3)))
 (let (($x4668 (= cell_3_8 2)))
 (let (($x389 (= cell_3_8 1)))
 (or $x389 $x4668 $x4077 $x4577 $x1152 $x4831 $x3050 $x5838 $x133)))))))))))
(assert
 (let (($x2823 (= cell_4_8 9)))
 (let (($x1529 (= cell_4_8 8)))
 (let (($x4889 (= cell_4_8 7)))
 (let (($x4239 (= cell_4_8 6)))
 (let (($x2798 (= cell_4_8 5)))
 (let (($x5873 (= cell_4_8 4)))
 (let (($x1463 (= cell_4_8 3)))
 (let (($x5884 (= cell_4_8 2)))
 (let (($x9474 (= cell_4_8 1)))
 (or $x9474 $x5884 $x1463 $x5873 $x2798 $x4239 $x4889 $x1529 $x2823)))))))))))
(assert
 (let (($x5910 (= cell_5_8 1)))
 (or $x5910 (= cell_5_8 2) (= cell_5_8 3) (= cell_5_8 4) (= cell_5_8 5) (= cell_5_8 6) (= cell_5_8 7) (= cell_5_8 8) (= cell_5_8 9))))
(assert
 (let (($x3435 (= cell_6_8 2)))
 (let (($x4308 (= cell_6_8 1)))
 (or $x4308 $x3435 (= cell_6_8 3) (= cell_6_8 4) (= cell_6_8 5) (= cell_6_8 6) (= cell_6_8 7) (= cell_6_8 8) (= cell_6_8 9)))))
(assert
 (let (($x4647 (= cell_7_8 9)))
 (let (($x1701 (= cell_7_8 8)))
 (let (($x2380 (= cell_7_8 7)))
 (let (($x4300 (= cell_7_8 6)))
 (let (($x78 (= cell_7_8 5)))
 (let (($x4199 (= cell_7_8 4)))
 (let (($x4941 (= cell_7_8 3)))
 (let (($x158 (= cell_7_8 2)))
 (let (($x1028 (= cell_7_8 1)))
 (or $x1028 $x158 $x4941 $x4199 $x78 $x4300 $x2380 $x1701 $x4647)))))))))))
(assert
 (let (($x3306 (= cell_8_8 2)))
 (let (($x5528 (= cell_8_8 1)))
 (or $x5528 $x3306 (= cell_8_8 3) (= cell_8_8 4) (= cell_8_8 5) (= cell_8_8 6) (= cell_8_8 7) (= cell_8_8 8) (= cell_8_8 9)))))
(assert
 (let (($x4125 (= cell_9_8 2)))
 (let (($x2127 (= cell_9_8 1)))
 (or $x2127 $x4125 (= cell_9_8 3) (= cell_9_8 4) (= cell_9_8 5) (= cell_9_8 6) (= cell_9_8 7) (= cell_9_8 8) (= cell_9_8 9)))))
(assert
 (let (($x2626 (= cell_1_9 9)))
 (let (($x5951 (= cell_1_9 8)))
 (let (($x5204 (= cell_1_9 7)))
 (let (($x2388 (= cell_1_9 6)))
 (let (($x1038 (= cell_1_9 5)))
 (let (($x6168 (= cell_1_9 4)))
 (let (($x2950 (= cell_1_9 3)))
 (let (($x4026 (= cell_1_9 2)))
 (let (($x4551 (= cell_1_9 1)))
 (or $x4551 $x4026 $x2950 $x6168 $x1038 $x2388 $x5204 $x5951 $x2626)))))))))))
(assert
 (let (($x4738 (= cell_2_9 9)))
 (let (($x360 (= cell_2_9 8)))
 (let (($x2606 (= cell_2_9 7)))
 (let (($x1045 (= cell_2_9 6)))
 (let (($x3344 (= cell_2_9 5)))
 (let (($x4130 (= cell_2_9 4)))
 (let (($x5842 (= cell_2_9 3)))
 (let (($x1783 (= cell_2_9 2)))
 (let (($x4394 (= cell_2_9 1)))
 (or $x4394 $x1783 $x5842 $x4130 $x3344 $x1045 $x2606 $x360 $x4738)))))))))))
(assert
 (let (($x183 (= cell_3_9 9)))
 (let (($x2951 (= cell_3_9 8)))
 (let (($x1368 (= cell_3_9 7)))
 (let (($x1659 (= cell_3_9 6)))
 (let (($x5990 (= cell_3_9 5)))
 (let (($x3501 (= cell_3_9 4)))
 (let (($x4810 (= cell_3_9 3)))
 (let (($x5026 (= cell_3_9 2)))
 (let (($x4058 (= cell_3_9 1)))
 (or $x4058 $x5026 $x4810 $x3501 $x5990 $x1659 $x1368 $x2951 $x183)))))))))))
(assert
 (let (($x602 (= cell_4_9 9)))
 (let (($x5548 (= cell_4_9 8)))
 (let (($x2323 (= cell_4_9 7)))
 (let (($x5324 (= cell_4_9 6)))
 (let (($x666 (= cell_4_9 5)))
 (let (($x51 (= cell_4_9 4)))
 (let (($x277 (= cell_4_9 3)))
 (let (($x1628 (= cell_4_9 2)))
 (let (($x5209 (= cell_4_9 1)))
 (or $x5209 $x1628 $x277 $x51 $x666 $x5324 $x2323 $x5548 $x602)))))))))))
(assert
 (let (($x5583 (= cell_5_9 9)))
 (let (($x5413 (= cell_5_9 8)))
 (let (($x3082 (= cell_5_9 7)))
 (let (($x513 (= cell_5_9 6)))
 (let (($x3870 (= cell_5_9 5)))
 (let (($x2300 (= cell_5_9 4)))
 (let (($x866 (= cell_5_9 3)))
 (let (($x4277 (= cell_5_9 2)))
 (let (($x3969 (= cell_5_9 1)))
 (or $x3969 $x4277 $x866 $x2300 $x3870 $x513 $x3082 $x5413 $x5583)))))))))))
(assert
 (let (($x5465 (= cell_6_9 9)))
 (let (($x4906 (= cell_6_9 8)))
 (let (($x3459 (= cell_6_9 7)))
 (let (($x2619 (= cell_6_9 6)))
 (let (($x4108 (= cell_6_9 5)))
 (let (($x3184 (= cell_6_9 4)))
 (let (($x4342 (= cell_6_9 3)))
 (let (($x4035 (= cell_6_9 2)))
 (let (($x4201 (= cell_6_9 1)))
 (or $x4201 $x4035 $x4342 $x3184 $x4108 $x2619 $x3459 $x4906 $x5465)))))))))))
(assert
 (let (($x1219 (= cell_7_9 1)))
 (or $x1219 (= cell_7_9 2) (= cell_7_9 3) (= cell_7_9 4) (= cell_7_9 5) (= cell_7_9 6) (= cell_7_9 7) (= cell_7_9 8) (= cell_7_9 9))))
(assert
 (let (($x3817 (= cell_8_9 1)))
 (or $x3817 (= cell_8_9 2) (= cell_8_9 3) (= cell_8_9 4) (= cell_8_9 5) (= cell_8_9 6) (= cell_8_9 7) (= cell_8_9 8) (= cell_8_9 9))))
(assert
 (let (($x5851 (= cell_9_9 1)))
 (or $x5851 (= cell_9_9 2) (= cell_9_9 3) (= cell_9_9 4) (= cell_9_9 5) (= cell_9_9 6) (= cell_9_9 7) (= cell_9_9 8) (= cell_9_9 9))))
(assert
 (and (distinct cell_1_1 cell_1_2 cell_1_3 cell_1_4 cell_1_5 cell_1_6 cell_1_7 cell_1_8 cell_1_9) true))
(assert
 (and (distinct cell_2_1 cell_2_2 cell_2_3 cell_2_4 cell_2_5 cell_2_6 cell_2_7 cell_2_8 cell_2_9) true))
(assert
 (and (distinct cell_3_1 cell_3_2 cell_3_3 cell_3_4 cell_3_5 cell_3_6 cell_3_7 cell_3_8 cell_3_9) true))
(assert
 (and (distinct cell_4_1 cell_4_2 cell_4_3 cell_4_4 cell_4_5 cell_4_6 cell_4_7 cell_4_8 cell_4_9) true))
(assert
 (and (distinct cell_5_1 cell_5_2 cell_5_3 cell_5_4 cell_5_5 cell_5_6 cell_5_7 cell_5_8 cell_5_9) true))
(assert
 (and (distinct cell_6_1 cell_6_2 cell_6_3 cell_6_4 cell_6_5 cell_6_6 cell_6_7 cell_6_8 cell_6_9) true))
(assert
 (and (distinct cell_7_1 cell_7_2 cell_7_3 cell_7_4 cell_7_5 cell_7_6 cell_7_7 cell_7_8 cell_7_9) true))
(assert
 (and (distinct cell_8_1 cell_8_2 cell_8_3 cell_8_4 cell_8_5 cell_8_6 cell_8_7 cell_8_8 cell_8_9) true))
(assert
 (and (distinct cell_9_1 cell_9_2 cell_9_3 cell_9_4 cell_9_5 cell_9_6 cell_9_7 cell_9_8 cell_9_9) true))
(assert
 (and (distinct cell_1_1 cell_2_1 cell_3_1 cell_4_1 cell_5_1 cell_6_1 cell_7_1 cell_8_1 cell_9_1) true))
(assert
 (and (distinct cell_1_2 cell_2_2 cell_3_2 cell_4_2 cell_5_2 cell_6_2 cell_7_2 cell_8_2 cell_9_2) true))
(assert
 (and (distinct cell_1_3 cell_2_3 cell_3_3 cell_4_3 cell_5_3 cell_6_3 cell_7_3 cell_8_3 cell_9_3) true))
(assert
 (and (distinct cell_1_4 cell_2_4 cell_3_4 cell_4_4 cell_5_4 cell_6_4 cell_7_4 cell_8_4 cell_9_4) true))
(assert
 (and (distinct cell_1_5 cell_2_5 cell_3_5 cell_4_5 cell_5_5 cell_6_5 cell_7_5 cell_8_5 cell_9_5) true))
(assert
 (and (distinct cell_1_6 cell_2_6 cell_3_6 cell_4_6 cell_5_6 cell_6_6 cell_7_6 cell_8_6 cell_9_6) true))
(assert
 (and (distinct cell_1_7 cell_2_7 cell_3_7 cell_4_7 cell_5_7 cell_6_7 cell_7_7 cell_8_7 cell_9_7) true))
(assert
 (and (distinct cell_1_8 cell_2_8 cell_3_8 cell_4_8 cell_5_8 cell_6_8 cell_7_8 cell_8_8 cell_9_8) true))
(assert
 (and (distinct cell_1_9 cell_2_9 cell_3_9 cell_4_9 cell_5_9 cell_6_9 cell_7_9 cell_8_9 cell_9_9) true))
(assert
 (and (distinct cell_1_1 cell_1_2 cell_1_3 cell_2_1 cell_2_2 cell_2_3 cell_3_1 cell_3_2 cell_3_3) true))
(assert
 (and (distinct cell_1_4 cell_1_5 cell_1_6 cell_2_4 cell_2_5 cell_2_6 cell_3_4 cell_3_5 cell_3_6) true))
(assert
 (and (distinct cell_1_7 cell_1_8 cell_1_9 cell_2_7 cell_2_8 cell_2_9 cell_3_7 cell_3_8 cell_3_9) true))
(assert
 (and (distinct cell_4_1 cell_4_2 cell_4_3 cell_5_1 cell_5_2 cell_5_3 cell_6_1 cell_6_2 cell_6_3) true))
(assert
 (and (distinct cell_4_4 cell_4_5 cell_4_6 cell_5_4 cell_5_5 cell_5_6 cell_6_4 cell_6_5 cell_6_6) true))
(assert
 (and (distinct cell_4_7 cell_4_8 cell_4_9 cell_5_7 cell_5_8 cell_5_9 cell_6_7 cell_6_8 cell_6_9) true))
(assert
 (and (distinct cell_7_1 cell_7_2 cell_7_3 cell_8_1 cell_8_2 cell_8_3 cell_9_1 cell_9_2 cell_9_3) true))
(assert
 (and (distinct cell_7_4 cell_7_5 cell_7_6 cell_8_4 cell_8_5 cell_8_6 cell_9_4 cell_9_5 cell_9_6) true))
(assert
 (and (distinct cell_7_7 cell_7_8 cell_7_9 cell_8_7 cell_8_8 cell_8_9 cell_9_7 cell_9_8 cell_9_9) true))
(assert
 (let (($x2190 (and (distinct cell_5_9 cell_6_8 cell_7_7 cell_8_6) true)))
 (let (($x5217 (and (distinct cell_2_9 cell_3_8 cell_4_7 cell_5_6 cell_6_5 cell_7_4 cell_8_3 cell_9_2) true)))
 (let (($x463 (and (distinct cell_1_8 cell_2_7 cell_3_6 cell_4_5 cell_5_4 cell_6_3 cell_7_2 cell_8_1) true)))
 (let (($x5868 (and (distinct cell_1_5 cell_2_4 cell_3_3 cell_4_2) true)))
 (let (($x4030 (and (distinct cell_5_1 cell_6_2 cell_7_3 cell_8_4) true)))
 (let (($x1720 (and (distinct cell_2_1 cell_3_2 cell_4_3 cell_5_4 cell_6_5 cell_7_6 cell_8_7 cell_9_8) true)))
 (let (($x256 (and (distinct cell_1_2 cell_2_3 cell_3_4 cell_4_5 cell_5_6 cell_6_7 cell_7_8 cell_8_9) true)))
 (let (($x1135 (and (distinct cell_1_5 cell_2_6 cell_3_7 cell_4_8) true)))
 (and $x1135 $x256 $x1720 $x4030 $x5868 $x463 $x5217 $x2190))))))))))
(assert
 (= cell_3_2 2))
(check-sat)
